c description: Subset cardinality formula for fast_gnp_random_graph(6,8,0.8)
c generator: CNFgen (0.9.0)
c copyright: (C) 2012-2020 Massimo Lauria <massimo.lauria@uniroma1.it>
c url: https://massimolauria.net/cnfgen
c
p cnf 38 201
1 2 3 4 0
1 2 3 5 0
1 2 3 6 0
1 2 4 5 0
1 2 4 6 0
1 2 5 6 0
1 3 4 5 0
1 3 4 6 0
1 3 5 6 0
1 4 5 6 0
2 3 4 5 0
2 3 4 6 0
2 3 5 6 0
2 4 5 6 0
3 4 5 6 0
7 8 9 10 0
7 8 9 11 0
7 8 9 12 0
7 8 9 13 0
7 8 10 11 0
7 8 10 12 0
7 8 10 13 0
7 8 11 12 0
7 8 11 13 0
7 8 12 13 0
7 9 10 11 0
7 9 10 12 0
7 9 10 13 0
7 9 11 12 0
7 9 11 13 0
7 9 12 13 0
7 10 11 12 0
7 10 11 13 0
7 10 12 13 0
7 11 12 13 0
8 9 10 11 0
8 9 10 12 0
8 9 10 13 0
8 9 11 12 0
8 9 11 13 0
8 9 12 13 0
8 10 11 12 0
8 10 11 13 0
8 10 12 13 0
8 11 12 13 0
9 10 11 12 0
9 10 11 13 0
9 10 12 13 0
9 11 12 13 0
10 11 12 13 0
14 15 16 17 0
14 15 16 18 0
14 15 16 19 0
14 15 17 18 0
14 15 17 19 0
14 15 18 19 0
14 16 17 18 0
14 16 17 19 0
14 16 18 19 0
14 17 18 19 0
15 16 17 18 0
15 16 17 19 0
15 16 18 19 0
15 17 18 19 0
16 17 18 19 0
20 21 22 23 0
20 21 22 24 0
20 21 22 25 0
20 21 23 24 0
20 21 23 25 0
20 21 24 25 0
20 22 23 24 0
20 22 23 25 0
20 22 24 25 0
20 23 24 25 0
21 22 23 24 0
21 22 23 25 0
21 22 24 25 0
21 23 24 25 0
22 23 24 25 0
26 27 28 29 0
26 27 28 30 0
26 27 28 31 0
26 27 28 32 0
26 27 29 30 0
26 27 29 31 0
26 27 29 32 0
26 27 30 31 0
26 27 30 32 0
26 27 31 32 0
26 28 29 30 0
26 28 29 31 0
26 28 29 32 0
26 28 30 31 0
26 28 30 32 0
26 28 31 32 0
26 29 30 31 0
26 29 30 32 0
26 29 31 32 0
26 30 31 32 0
27 28 29 30 0
27 28 29 31 0
27 28 29 32 0
27 28 30 31 0
27 28 30 32 0
27 28 31 32 0
27 29 30 31 0
27 29 30 32 0
27 29 31 32 0
27 30 31 32 0
28 29 30 31 0
28 29 30 32 0
28 29 31 32 0
28 30 31 32 0
29 30 31 32 0
33 34 35 36 0
33 34 35 37 0
33 34 35 38 0
33 34 36 37 0
33 34 36 38 0
33 34 37 38 0
33 35 36 37 0
33 35 36 38 0
33 35 37 38 0
33 36 37 38 0
34 35 36 37 0
34 35 36 38 0
34 35 37 38 0
34 36 37 38 0
35 36 37 38 0
-1 -7 -20 0
-1 -7 -26 0
-1 -7 -33 0
-1 -20 -26 0
-1 -20 -33 0
-1 -26 -33 0
-7 -20 -26 0
-7 -20 -33 0
-7 -26 -33 0
-20 -26 -33 0
-2 -14 0
-2 -27 0
-14 -27 0
-8 -15 -21 0
-8 -15 -28 0
-8 -15 -34 0
-8 -21 -28 0
-8 -21 -34 0
-8 -28 -34 0
-15 -21 -28 0
-15 -21 -34 0
-15 -28 -34 0
-21 -28 -34 0
-3 -9 -16 -22 0
-3 -9 -16 -29 0
-3 -9 -16 -35 0
-3 -9 -22 -29 0
-3 -9 -22 -35 0
-3 -9 -29 -35 0
-3 -16 -22 -29 0
-3 -16 -22 -35 0
-3 -16 -29 -35 0
-3 -22 -29 -35 0
-9 -16 -22 -29 0
-9 -16 -22 -35 0
-9 -16 -29 -35 0
-9 -22 -29 -35 0
-16 -22 -29 -35 0
-4 -10 -23 0
-4 -10 -30 0
-4 -23 -30 0
-10 -23 -30 0
-5 -11 -17 -24 0
-5 -11 -17 -31 0
-5 -11 -17 -36 0
-5 -11 -24 -31 0
-5 -11 -24 -36 0
-5 -11 -31 -36 0
-5 -17 -24 -31 0
-5 -17 -24 -36 0
-5 -17 -31 -36 0
-5 -24 -31 -36 0
-11 -17 -24 -31 0
-11 -17 -24 -36 0
-11 -17 -31 -36 0
-11 -24 -31 -36 0
-17 -24 -31 -36 0
-6 -12 -18 0
-6 -12 -37 0
-6 -18 -37 0
-12 -18 -37 0
-13 -19 -25 0
-13 -19 -32 0
-13 -19 -38 0
-13 -25 -32 0
-13 -25 -38 0
-13 -32 -38 0
-19 -25 -32 0
-19 -25 -38 0
-19 -32 -38 0
-25 -32 -38 0